c FILE /home/rafael/Documents/HappySet/MIHS/inputs/happygen/output/graph_scale_free_k5_p0.3_v100_20241127_083841.txt
c SOURCE This is a scale-free graph formed for the happy graph colouring problem.
c DESCRIPTION It was generated using the problem generator of Rhyd Lewis
c
c GRAPH STATS
c Seed                             = -1918581338
c Number of Nodes                  = 100
c Number of colours k              = 5
c Number of pre-assignments        = 30
c Number of links per new node     = 5
c Density                          = 0.0979798
c 
c The degrees of nodes 1 to 100, respectively, are as follows 
c [46, 37, 34, 31, 27, 25, 24, 23, 21, 19, 18, 17, 17, 17, 14, 13, 13, 13, 12, 11, 11, 11, 11, 11, 11, 11, 
c  11, 10, 10, 10, 10, 10, 9, 9, 8, 8, 8, 8, 8, 8, 8, 8, 8, 8, 8, 7, 7, 7, 7, 7, 7, 
c  7, 6, 6, 6, 6, 6, 6, 6, 6, 6, 6, 6, 6, 6, 6, 6, 6, 5, 5, 5, 5, 5, 5, 5, 5, 
c  5, 5, 5, 5, 5, 5, 5, 5, 5, 5, 5, 5, 5, 5, 5, 5, 5, 5, 5, 5, 5, 5, 5, 5] 
c  
p edge 100 485 5
e 1 2
e 1 3
e 1 4
e 1 5
e 1 6
e 1 7
e 1 9
e 1 10
e 1 11
e 1 12
e 1 13
e 1 14
e 1 16
e 1 17
e 1 18
e 1 19
e 1 20
e 1 23
e 1 24
e 1 33
e 1 39
e 1 41
e 1 43
e 1 45
e 1 46
e 1 48
e 1 49
e 1 51
e 1 53
e 1 54
e 1 56
e 1 57
e 1 59
e 1 60
e 1 63
e 1 65
e 1 69
e 1 70
e 1 72
e 1 75
e 1 78
e 1 81
e 1 86
e 1 89
e 1 94
e 1 95
e 2 3
e 2 4
e 2 5
e 2 7
e 2 8
e 2 9
e 2 10
e 2 11
e 2 12
e 2 13
e 2 19
e 2 20
e 2 22
e 2 23
e 2 26
e 2 33
e 2 38
e 2 39
e 2 41
e 2 43
e 2 44
e 2 46
e 2 48
e 2 49
e 2 53
e 2 58
e 2 62
e 2 70
e 2 72
e 2 73
e 2 80
e 2 87
e 2 90
e 2 91
e 2 94
e 2 97
e 3 4
e 3 5
e 3 6
e 3 7
e 3 10
e 3 11
e 3 12
e 3 13
e 3 16
e 3 20
e 3 21
e 3 22
e 3 28
e 3 35
e 3 40
e 3 42
e 3 43
e 3 47
e 3 51
e 3 54
e 3 59
e 3 60
e 3 63
e 3 69
e 3 71
e 3 78
e 3 79
e 3 82
e 3 83
e 3 85
e 3 86
e 3 92
e 4 6
e 4 8
e 4 9
e 4 11
e 4 12
e 4 14
e 4 16
e 4 18
e 4 19
e 4 21
e 4 26
e 4 29
e 4 35
e 4 42
e 4 46
e 4 48
e 4 50
e 4 54
e 4 55
e 4 56
e 4 57
e 4 58
e 4 60
e 4 66
e 4 68
e 4 79
e 4 89
e 4 100
e 5 8
e 5 9
e 5 10
e 5 11
e 5 12
e 5 15
e 5 16
e 5 20
e 5 22
e 5 23
e 5 24
e 5 25
e 5 28
e 5 30
e 5 37
e 5 38
e 5 40
e 5 43
e 5 56
e 5 70
e 5 75
e 5 86
e 5 88
e 5 89
e 6 8
e 6 9
e 6 13
e 6 20
e 6 24
e 6 43
e 6 46
e 6 47
e 6 48
e 6 49
e 6 52
e 6 55
e 6 57
e 6 60
e 6 67
e 6 68
e 6 72
e 6 80
e 6 83
e 6 91
e 6 97
e 6 100
e 7 8
e 7 9
e 7 18
e 7 24
e 7 25
e 7 32
e 7 34
e 7 36
e 7 39
e 7 49
e 7 50
e 7 52
e 7 61
e 7 67
e 7 71
e 7 79
e 7 81
e 7 83
e 7 88
e 7 90
e 7 98
e 8 11
e 8 15
e 8 18
e 8 21
e 8 31
e 8 33
e 8 36
e 8 37
e 8 38
e 8 41
e 8 46
e 8 50
e 8 69
e 8 72
e 8 87
e 8 88
e 8 90
e 8 93
e 9 12
e 9 20
e 9 22
e 9 27
e 9 28
e 9 29
e 9 36
e 9 44
e 9 55
e 9 58
e 9 59
e 9 62
e 9 80
e 9 98
e 9 100
e 10 12
e 10 14
e 10 22
e 10 23
e 10 32
e 10 38
e 10 54
e 10 56
e 10 59
e 10 61
e 10 65
e 10 70
e 10 73
e 10 82
e 10 87
e 11 12
e 11 17
e 11 19
e 11 21
e 11 31
e 11 33
e 11 38
e 11 41
e 11 48
e 11 70
e 11 71
e 11 92
e 12 13
e 12 14
e 12 16
e 12 19
e 12 28
e 12 29
e 12 42
e 12 83
e 12 88
e 13 27
e 13 40
e 13 47
e 13 63
e 13 64
e 13 74
e 13 75
e 13 78
e 13 84
e 13 89
e 13 96
e 13 98
e 14 15
e 14 17
e 14 18
e 14 23
e 14 35
e 14 58
e 14 62
e 14 67
e 14 69
e 14 74
e 14 76
e 14 82
e 14 95
e 15 16
e 15 20
e 15 32
e 15 34
e 15 37
e 15 60
e 15 64
e 15 79
e 15 82
e 15 84
e 15 95
e 16 21
e 16 23
e 16 26
e 16 33
e 16 44
e 16 59
e 16 87
e 17 21
e 17 33
e 17 49
e 17 53
e 17 56
e 17 61
e 17 65
e 17 73
e 17 81
e 17 91
e 18 31
e 18 37
e 18 39
e 18 64
e 18 74
e 18 75
e 18 77
e 18 94
e 19 24
e 19 50
e 19 57
e 19 61
e 19 62
e 19 76
e 19 94
e 20 28
e 20 35
e 20 42
e 20 81
e 21 35
e 21 44
e 21 83
e 21 99
e 21 100
e 22 32
e 22 40
e 22 47
e 22 53
e 22 79
e 22 96
e 23 25
e 23 30
e 23 39
e 23 51
e 23 78
e 24 53
e 24 55
e 24 84
e 24 87
e 24 92
e 24 97
e 25 27
e 25 28
e 25 34
e 25 36
e 25 47
e 25 65
e 25 67
e 25 93
e 26 29
e 26 33
e 26 48
e 26 51
e 26 58
e 26 72
e 26 95
e 26 97
e 27 29
e 27 38
e 27 41
e 27 74
e 27 76
e 27 77
e 27 85
e 27 96
e 28 29
e 28 66
e 28 74
e 28 84
e 29 30
e 29 44
e 29 75
e 29 97
e 30 34
e 30 40
e 30 46
e 30 50
e 30 67
e 30 71
e 30 84
e 31 32
e 31 34
e 31 41
e 31 56
e 31 64
e 31 85
e 31 98
e 32 68
e 32 85
e 32 86
e 32 90
e 32 93
e 33 63
e 33 71
e 34 68
e 34 77
e 34 91
e 34 95
e 35 37
e 35 45
e 35 55
e 36 40
e 36 42
e 36 54
e 36 73
e 37 69
e 37 73
e 37 93
e 38 66
e 38 99
e 39 52
e 39 66
e 39 99
e 40 61
e 40 99
e 41 91
e 41 98
e 42 76
e 42 80
e 42 96
e 43 64
e 43 76
e 43 81
e 44 45
e 44 89
e 44 92
e 45 63
e 45 65
e 45 92
e 45 94
e 45 99
e 46 47
e 47 54
e 48 86
e 49 62
e 49 65
e 50 63
e 50 66
e 51 52
e 51 61
e 51 80
e 52 60
e 52 90
e 52 96
e 53 78
e 55 57
e 57 77
e 58 77
e 59 68
e 62 88
e 64 82
e 66 93
e 67 100
e 68 85
n 2 1
n 15 5
n 16 5
n 18 4
n 24 3
n 28 1
n 32 5
n 35 3
n 36 5
n 38 1
n 41 1
n 43 1
n 49 1
n 50 3
n 55 3
n 61 4
n 62 1
n 63 3
n 69 3
n 75 4
n 76 1
n 77 4
n 80 1
n 81 1
n 83 2
n 88 1
n 92 3
n 93 5
n 99 1
n 100 2
